(set-info :smt-lib-version 2.6)
(set-logic QF_LIA)
(set-info :category "industrial")
(set-info :status sat)
(declare-fun x0 () Int)
(declare-fun x1 () Int)
(declare-fun x10 () Int)
(declare-fun x11 () Int)
(declare-fun x12 () Int)
(declare-fun x13 () Int)
(declare-fun x14 () Int)
(declare-fun x15 () Int)
(declare-fun x16 () Int)
(declare-fun x17 () Int)
(declare-fun x18 () Int)
(declare-fun x19 () Int)
(declare-fun x2 () Int)
(declare-fun x20 () Int)
(declare-fun x21 () Int)
(declare-fun x22 () Int)
(declare-fun x23 () Int)
(declare-fun x24 () Int)
(declare-fun x25 () Int)
(declare-fun x26 () Int)
(declare-fun x27 () Int)
(declare-fun x28 () Int)
(declare-fun x29 () Int)
(declare-fun x3 () Int)
(declare-fun x30 () Int)
(declare-fun x31 () Int)
(declare-fun x32 () Int)
(declare-fun x33 () Int)
(declare-fun x34 () Int)
(declare-fun x35 () Int)
(declare-fun x36 () Int)
(declare-fun x37 () Int)
(declare-fun x38 () Int)
(declare-fun x39 () Int)
(declare-fun x4 () Int)
(declare-fun x40 () Int)
(declare-fun x41 () Int)
(declare-fun x42 () Int)
(declare-fun x43 () Int)
(declare-fun x44 () Int)
(declare-fun x5 () Int)
(declare-fun x6 () Int)
(declare-fun x7 () Int)
(declare-fun x8 () Int)
(declare-fun x9 () Int)
(assert (let ((?v_14 (* 0 x10)) (?v_5 (* 0 x11)) (?v_0 (* 0 x12)) (?v_6 (* 0 x14)) (?v_7 (* 0 x2)) (?v_50 (* 1 x16)) (?v_9 (* 0 x24)) (?v_18 (* 0 x25)) (?v_10 (* 1 x22)) (?v_66 (* 1 x28)) (?v_51 (* 0 x30)) (?v_2 (* 0 x32)) (?v_86 (* 0 x34)) (?v_87 (* 0 x37)) (?v_59 (* 0 x39)) (?v_96 (* 1 x4)) (?v_52 (* 1 x41)) (?v_22 (* 1 x43)) (?v_45 (* 0 x5)) (?v_44 (* 1 x6)) (?v_63 (* 1 x7)) (?v_13 (* 1 x8)) (?v_3 (* 1 x9))) (let ((?v_123 (+ ?v_63 (+ ?v_13 ?v_3))) (?v_16 (* 0 x16)) (?v_8 (* 0 x20)) (?v_19 (* 0 x26)) (?v_40 (* 0 x28)) (?v_11 (* 0 x33)) (?v_58 (* 0 x35)) (?v_33 (* 0 x38)) (?v_88 (* 1 x36)) (?v_42 (* 1 x39)) (?v_12 (* 1 x42)) (?v_35 (* 0 x43)) (?v_125 (* 0 x7)) (?v_46 (* 0 x1)) (?v_122 (* 1 x17)) (?v_65 (* 0 x18)) (?v_47 (* 0 x21)) (?v_17 (* 0 x23)) (?v_95 (* 1 x3)) (?v_73 (* 0 x36)) (?v_74 (* 0 x40)) (?v_31 (* 1 x30)) (?v_89 (* 0 x9)) (?v_64 (* 0 x17)) (?v_28 (* 1 x18)) (?v_93 (* 1 x21)) (?v_29 (* 0 x22)) (?v_26 (* 0 x27)) (?v_30 (* 1 x20)) (?v_108 (* 1 x24)) (?v_41 (* 0 x3)) (?v_100 (* 0 x31)) (?v_34 (* 0 x41)) (?v_36 (* 0 x44)) (?v_61 (* 0 x8)) (?v_128 (* 1 x35)) (?v_57 (* 0 x13)) (?v_81 (* 1 x1)) (?v_56 (* 1 x11)) (?v_37 (* 1 x19)) (?v_75 (* 0 x6)) (?v_62 (* 1 x5)) (?v_105 (* 1 x38)) (?v_60 (* 0 x4)) (?v_55 (* 1 x10)) (?v_82 (* 0 x19)) (?v_85 (* 0 x29)) (?v_68 (* 1 x44)) (?v_91 (* 0 x0)) (?v_69 (* 0 x15)) (?v_67 (* 1 x37)) (?v_113 (* 1 x40)) (?v_78 (* 1 x15)) (?v_92 (* 1 x2)) (?v_76 (* 2 x19)) (?v_127 (* 1 x33)) (?v_94 (* 1 x23)) (?v_109 (* 1 x25)) (?v_84 (* 1 x26)) (?v_126 (* 1 x29)) (?v_112 (* 1 x0)) (?v_106 (* 0 x42)) (?v_118 (* 1 x34)) (?v_24 (* (- 1) x17)) (?v_38 (* (- 1) x20)) (?v_1 (* (- 1) x29)) (?v_121 (* (- 2) x4)) (?v_4 (* (- 1) x0)) (?v_97 (* (- 1) x1)) (?v_116 (* (- 1) x19)) (?v_32 (* (- 1) x31)) (?v_77 (* (- 1) x34)) (?v_20 (* (- 1) x40)) (?v_23 (* (- 1) x10)) (?v_25 (* (- 1) x26)) (?v_15 (* (- 1) x38)) (?v_117 (* (- 1) x41)) (?v_43 (* (- 1) x43)) (?v_21 (* (- 1) x5)) (?v_107 (* (- 1) x13)) (?v_27 (* (- 1) x28)) (?v_71 (* (- 1) x37)) (?v_79 (* (- 1) x6)) (?v_111 (* (- 1) x39)) (?v_115 (* (- 1) x15)) (?v_70 (* (- 2) x16)) (?v_39 (* (- 1) x21)) (?v_53 (* (- 1) x24)) (?v_119 (* (- 2) x36)) (?v_48 (* (- 1) x3)) (?v_99 (* (- 1) x8)) (?v_103 (* (- 1) x14)) (?v_54 (* (- 1) x30)) (?v_49 (* (- 1) x36)) (?v_90 (* (- 1) x44)) (?v_110 (* (- 1) x9)) (?v_102 (* (- 1) x12)) (?v_80 (* (- 1) x32)) (?v_83 (* (- 1) x33)) (?v_72 (* (- 1) x42)) (?v_98 (* (- 1) x23)) (?v_129 (* (- 2) x35)) (?v_104 (* (- 1) x2)) (?v_101 (* (- 1) x35)) (?v_124 (* (- 1) x4)) (?v_114 (* (- 1) x11)) (?v_120 (* (- 1) x7))) (and (<= (+ ?v_14 (+ ?v_24 (+ ?v_5 (+ ?v_0 (+ ?v_6 (+ ?v_7 (+ ?v_50 (+ (* 2 x0) (+ ?v_38 (+ ?v_9 (+ ?v_18 (+ ?v_10 (+ ?v_66 (+ ?v_1 (+ ?v_51 (+ ?v_2 (+ ?v_86 (+ ?v_87 (+ ?v_59 (+ ?v_96 (+ ?v_52 (+ ?v_22 (+ ?v_45 (+ ?v_44 ?v_123)))))))))))))))))))))))) 0) (<= (+ (* (- 2) x11) (+ ?v_121 (+ (* (- 2) x8) (+ ?v_4 (+ ?v_97 (+ ?v_116 (+ ?v_0 (+ (* 1 x14) (+ ?v_16 (+ ?v_8 (+ ?v_19 (+ ?v_40 (+ ?v_1 (+ ?v_32 (+ ?v_2 (+ ?v_11 (+ ?v_77 (+ ?v_20 (+ ?v_58 (+ ?v_33 (+ ?v_88 (+ ?v_42 (+ ?v_12 (+ ?v_35 (+ ?v_125 ?v_3))))))))))))))))))))))))) 1) (<= (+ (* (- 2) x15) (+ (* (- 2) x6) (+ ?v_4 (+ ?v_23 (+ ?v_25 (+ ?v_15 (+ ?v_117 (+ ?v_46 (+ ?v_5 (+ (* (- 1) x16) (+ ?v_0 (+ ?v_6 (+ ?v_122 (+ ?v_65 (+ ?v_7 (+ ?v_43 (+ ?v_8 (+ ?v_47 (+ ?v_17 (+ ?v_9 (+ ?v_10 (+ ?v_1 (+ ?v_95 (+ ?v_73 (+ ?v_74 (+ ?v_31 (+ ?v_11 (+ ?v_12 (+ ?v_21 (+ ?v_13 (+ ?v_89 (* 2 x35)))))))))))))))))))))))))))))))) 1) (<= (+ ?v_107 (+ ?v_14 (+ ?v_27 (+ ?v_71 (+ ?v_15 (+ ?v_79 (+ ?v_16 (+ ?v_64 (+ ?v_28 (+ ?v_93 (+ ?v_29 (+ ?v_17 (+ ?v_18 (+ ?v_19 (+ ?v_26 (+ ?v_30 (+ ?v_108 (+ ?v_1 (+ ?v_41 (+ ?v_111 (+ ?v_20 (+ ?v_21 (+ ?v_100 (+ ?v_11 (+ ?v_34 (+ ?v_36 (+ ?v_61 (+ ?v_128 (+ ?v_22 ?v_3))))))))))))))))))))))))))))) (- 1)) (<= (+ ?v_23 (+ ?v_57 (+ ?v_115 (+ ?v_81 (+ ?v_56 (+ ?v_70 (+ ?v_24 (+ ?v_39 (+ ?v_17 (+ ?v_53 (+ ?v_25 (+ ?v_26 (+ ?v_27 (+ ?v_119 (+ ?v_28 (+ ?v_37 (+ ?v_29 (+ ?v_30 (+ ?v_1 (+ ?v_48 (+ ?v_31 (+ ?v_32 (+ ?v_20 (+ ?v_99 (+ ?v_11 (+ ?v_33 (+ ?v_34 (+ ?v_35 (+ ?v_36 (+ ?v_75 ?v_62)))))))))))))))))))))))))))))) 1) (<= (+ (* 2 x10) (+ ?v_103 (+ ?v_16 (+ (* 3 x17) (+ ?v_28 (+ ?v_37 (+ (* (- 2) x33) (+ ?v_38 (+ ?v_39 (+ (* (- 1) x25) (+ ?v_40 (+ ?v_1 (+ ?v_41 (+ ?v_54 (+ ?v_32 (+ ?v_2 (+ ?v_49 (+ ?v_90 (+ ?v_105 (+ ?v_42 (+ ?v_60 (+ ?v_34 (+ ?v_43 (+ ?v_44 (+ ?v_110 ?v_45))))))))))))))))))))))))) 0) (<= (+ (* (- 3) x18) (+ ?v_46 (+ ?v_55 (+ ?v_5 (+ ?v_102 (+ ?v_24 (+ ?v_47 (+ ?v_26 (+ ?v_27 (+ ?v_48 (+ ?v_80 (+ ?v_49 (+ ?v_82 (+ ?v_50 (+ ?v_10 (+ (* 2 x20) (+ ?v_32 (+ ?v_83 (+ ?v_85 (+ ?v_51 (+ ?v_33 (+ ?v_42 (+ ?v_52 (+ ?v_22 (+ ?v_68 ?v_45))))))))))))))))))))))))) 1) (<= (+ ?v_24 (+ ?v_39 (+ ?v_53 (+ ?v_25 (+ ?v_54 (+ ?v_49 (+ ?v_15 (+ ?v_72 (+ ?v_91 (+ ?v_46 (+ ?v_55 (+ ?v_56 (+ ?v_0 (+ ?v_57 (+ ?v_6 (+ ?v_69 (+ ?v_37 (+ ?v_29 (+ ?v_17 (+ ?v_26 (+ ?v_40 (+ ?v_41 (+ ?v_50 (+ ?v_32 (+ ?v_11 (+ ?v_58 (+ ?v_67 (+ ?v_59 (+ ?v_60 (+ ?v_113 (+ ?v_34 (+ ?v_35 (+ ?v_61 (+ ?v_62 ?v_63)))))))))))))))))))))))))))))))))) 1) (<= (+ ?v_98 (+ ?v_5 (+ ?v_49 (+ ?v_0 (+ ?v_6 (+ ?v_78 (+ ?v_64 (+ ?v_65 (+ ?v_9 (+ ?v_18 (+ ?v_19 (+ ?v_41 (+ ?v_92 (+ ?v_66 (+ ?v_76 (+ ?v_51 (+ ?v_32 (+ ?v_59 (+ ?v_60 (+ ?v_34 (+ ?v_61 (+ ?v_127 (+ ?v_129 (+ ?v_67 (+ ?v_22 (+ ?v_68 ?v_44)))))))))))))))))))))))))) 1) (<= (+ ?v_46 (+ ?v_14 (+ ?v_5 (+ ?v_57 (+ ?v_6 (+ ?v_69 (+ ?v_70 (+ ?v_24 (+ ?v_71 (+ ?v_15 (+ ?v_72 (+ ?v_47 (+ ?v_94 (+ ?v_109 (+ ?v_84 (+ ?v_41 (+ ?v_2 (+ ?v_73 (+ ?v_74 (+ ?v_36 (+ ?v_75 (+ ?v_61 (+ ?v_28 (+ ?v_76 (+ ?v_38 (+ ?v_31 (+ ?v_11 (+ ?v_77 (+ ?v_126 (+ ?v_42 (+ ?v_52 ?v_22))))))))))))))))))))))))))))))) (- 1)) (<= (+ (* (- 3) x12) (+ ?v_4 (+ ?v_14 (+ ?v_5 (+ ?v_6 (+ ?v_78 (+ ?v_104 (+ ?v_39 (+ ?v_53 (+ ?v_20 (+ ?v_79 (+ ?v_16 (+ ?v_64 (+ ?v_18 (+ ?v_19 (+ ?v_40 (+ ?v_2 (+ ?v_73 (+ ?v_36 (+ ?v_61 (+ ?v_37 (+ ?v_10 (+ (* 2 x23) (+ ?v_31 (+ ?v_101 (+ ?v_59 (+ ?v_60 ?v_45))))))))))))))))))))))))))) (- 1)) (<= (+ ?v_14 (+ ?v_24 (+ ?v_39 (+ ?v_48 (+ ?v_80 (+ ?v_81 (+ ?v_0 (+ ?v_6 (+ ?v_28 (+ ?v_82 (+ ?v_7 (+ ?v_50 (+ ?v_83 (+ ?v_124 (+ ?v_112 (+ ?v_8 (+ ?v_84 (+ ?v_66 (+ ?v_85 (+ ?v_86 (+ ?v_87 (+ ?v_33 (+ ?v_34 (+ ?v_36 (+ ?v_61 (+ ?v_88 (+ ?v_35 (+ ?v_45 (+ (* 2 x6) (+ ?v_63 ?v_89)))))))))))))))))))))))))))))) 0) (<= (+ ?v_70 (+ ?v_24 (+ ?v_25 (+ ?v_15 (+ (* (- 2) x40) (+ ?v_90 (+ ?v_91 (+ ?v_5 (+ ?v_57 (+ ?v_6 (+ ?v_92 (+ (* 2 x1) (+ ?v_8 (+ ?v_93 (+ ?v_10 (+ ?v_94 (+ (* 2 x25) (+ ?v_66 (+ ?v_32 (+ ?v_85 (+ ?v_95 (+ ?v_58 (+ ?v_34 (+ ?v_106 (+ ?v_42 (+ ?v_96 (+ ?v_35 (+ ?v_63 (* 2 x9))))))))))))))))))))))))))))) (- 1)) (<= (+ ?v_97 (+ ?v_39 (+ ?v_98 (+ ?v_80 (+ ?v_72 (+ ?v_79 (+ ?v_99 (+ ?v_91 (+ ?v_14 (+ ?v_5 (+ (* 2 x17) (+ ?v_65 (+ ?v_18 (+ ?v_19 (+ ?v_37 (+ ?v_10 (+ ?v_85 (+ ?v_41 (+ ?v_51 (+ ?v_100 (+ ?v_86 (+ ?v_101 (+ ?v_67 (+ ?v_33 (+ ?v_34 (+ (* 2 x39) (+ ?v_35 (+ ?v_36 ?v_89)))))))))))))))))))))))))))) (- 1)) (<= (+ ?v_4 (+ ?v_46 (+ ?v_14 (+ ?v_102 (+ ?v_103 (+ ?v_78 (+ (* (- 1) x18) (+ ?v_104 (+ ?v_16 (+ ?v_37 (+ (* (- 2) x20) (+ ?v_29 (+ ?v_94 (+ ?v_9 (+ ?v_18 (+ ?v_26 (+ ?v_85 (+ ?v_31 (+ ?v_100 (+ ?v_2 (+ ?v_11 (+ ?v_101 (+ ?v_105 (+ ?v_59 (+ ?v_106 (+ ?v_75 (+ ?v_61 (+ ?v_52 (+ ?v_35 (+ ?v_68 ?v_63)))))))))))))))))))))))))))))) 0) (<= (+ ?v_107 (+ ?v_24 (+ ?v_104 (+ ?v_39 (+ ?v_46 (+ ?v_14 (+ ?v_94 (+ ?v_108 (+ ?v_109 (+ (* 1 x27) (+ ?v_66 (+ ?v_83 (+ ?v_77 (+ ?v_99 (+ ?v_110 (+ ?v_85 (+ ?v_87 (+ ?v_106 (+ (* 2 x3) (+ ?v_45 (+ ?v_75 (+ (* 1 x31) (+ ?v_101 (+ ?v_105 (+ ?v_96 ?v_52))))))))))))))))))))))))) 0) (<= (+ ?v_114 (+ (* (- 3) x14) (+ ?v_81 (+ ?v_102 (+ ?v_16 (+ ?v_64 (+ ?v_82 (+ ?v_7 (+ ?v_47 (+ ?v_17 (+ ?v_9 (+ ?v_18 (+ ?v_26 (+ ?v_111 (+ ?v_51 (+ ?v_2 (+ ?v_33 (+ ?v_36 (+ ?v_112 (+ ?v_30 (+ ?v_66 (+ ?v_100 (+ ?v_86 (+ ?v_58 (+ ?v_88 (+ (* 2 x37) (+ ?v_113 (+ ?v_12 (+ (* 2 x43) ?v_3))))))))))))))))))))))))))))) 1) (<= (+ ?v_55 (+ (* (- 2) x17) (+ ?v_114 (+ ?v_107 (+ ?v_115 (+ ?v_116 (+ ?v_39 (+ ?v_98 (+ ?v_117 (+ ?v_90 (+ ?v_91 (+ ?v_46 (+ ?v_0 (+ ?v_6 (+ ?v_29 (+ ?v_9 (+ ?v_18 (+ ?v_50 (+ ?v_92 (+ ?v_95 (+ ?v_100 (+ (* 1 x32) (+ ?v_73 (+ ?v_105 (+ ?v_42 (+ ?v_113 (+ ?v_45 (+ ?v_61 (+ ?v_118 ?v_63))))))))))))))))))))))))))))) 0) (<= (+ ?v_103 (+ ?v_48 (+ ?v_54 (+ ?v_80 (+ ?v_90 (+ ?v_120 (+ ?v_91 (+ ?v_14 (+ ?v_0 (+ (* 1 x13) (+ ?v_64 (+ ?v_40 (+ ?v_73 (+ ?v_74 (+ ?v_106 (+ ?v_75 (+ ?v_61 (+ ?v_28 (+ ?v_37 (+ ?v_92 (+ ?v_84 (+ ?v_11 (+ ?v_60 (+ ?v_30 (+ ?v_42 (+ ?v_52 (+ ?v_110 (+ ?v_100 (+ ?v_45 (* 2 x34)))))))))))))))))))))))))))))) 0) (<= (+ ?v_5 (+ ?v_57 (+ ?v_103 (+ ?v_78 (+ ?v_53 (+ ?v_25 (+ ?v_117 (+ ?v_46 (+ ?v_16 (+ ?v_37 (+ ?v_83 (+ ?v_8 (+ ?v_47 (+ ?v_94 (+ ?v_109 (+ ?v_26 (+ ?v_95 (+ (* 2 x28) (+ ?v_51 (+ ?v_100 (+ ?v_87 (+ ?v_106 (+ ?v_88 (+ ?v_35 (+ (* 2 x44) (+ ?v_75 (+ ?v_89 ?v_118))))))))))))))))))))))))))) 1) (<= (+ (* (- 2) x27) (+ ?v_119 (+ ?v_97 (+ ?v_14 (+ ?v_115 (+ ?v_111 (+ ?v_117 (+ ?v_0 (+ ?v_57 (+ ?v_65 (+ ?v_29 (+ ?v_17 (+ ?v_40 (+ ?v_2 (+ ?v_87 (+ ?v_106 (+ ?v_43 (+ ?v_112 (+ ?v_92 (+ ?v_84 (+ ?v_76 (+ (* 2 x30) (+ ?v_100 (+ ?v_86 (+ ?v_101 (+ ?v_105 (+ ?v_63 (+ (* 2 x4) ?v_89)))))))))))))))))))))))))))) (- 1)) (<= (+ ?v_4 (+ ?v_5 (+ ?v_69 (+ ?v_64 (+ ?v_7 (+ (* (- 1) x22) (+ ?v_26 (+ ?v_50 (+ ?v_108 (+ ?v_109 (+ ?v_66 (+ (* 2 x18) (+ (* 3 x12) (+ ?v_83 (+ ?v_71 (+ ?v_20 (+ ?v_120 (+ ?v_99 (+ ?v_8 (+ ?v_73 (+ ?v_60 (+ (* (- 2) x9) (+ ?v_100 (+ ?v_86 (+ ?v_101 (+ ?v_22 ?v_45)))))))))))))))))))))))))) 0) (<= (+ ?v_114 (+ ?v_46 (+ ?v_14 (+ ?v_121 (+ ?v_72 (+ ?v_79 (+ ?v_0 (+ ?v_57 (+ ?v_6 (+ ?v_16 (+ ?v_122 (+ ?v_65 (+ ?v_7 (+ ?v_17 (+ ?v_33 (+ ?v_74 (+ ?v_34 (+ ?v_112 (+ ?v_30 (+ ?v_93 (+ ?v_10 (+ (* 2 x26) (+ ?v_66 (+ ?v_100 (+ ?v_101 (+ (* 2 x36) (+ ?v_22 (+ ?v_45 ?v_123)))))))))))))))))))))))))))) (- 1)) (<= (+ ?v_97 (+ ?v_6 (+ ?v_80 (+ ?v_0 (+ ?v_16 (+ ?v_47 (+ ?v_40 (+ ?v_41 (+ ?v_33 (+ ?v_28 (+ ?v_37 (+ ?v_92 (+ ?v_29 (+ ?v_108 (+ ?v_54 (+ ?v_88 (+ ?v_111 (+ ?v_124 (+ ?v_113 (+ ?v_52 (+ ?v_43 (+ ?v_91 (+ ?v_8 (+ ?v_32 (+ ?v_21 (+ ?v_79 (+ ?v_110 (+ ?v_86 (+ ?v_125 (+ ?v_126 (+ ?v_127 ?v_128))))))))))))))))))))))))))))))) 1) (<= (+ (* (- 2) x37) (+ ?v_46 (+ ?v_56 (+ ?v_102 (+ ?v_16 (+ ?v_64 (+ ?v_38 (+ ?v_17 (+ ?v_53 (+ ?v_18 (+ ?v_25 (+ ?v_26 (+ ?v_41 (+ ?v_15 (+ ?v_93 (+ ?v_20 (+ ?v_29 (+ ?v_40 (+ ?v_73 (+ ?v_60 (+ ?v_106 (+ ?v_35 (+ ?v_36 (+ ?v_75 (+ ?v_110 (+ ?v_126 (+ ?v_127 (+ ?v_62 (+ (* 2 x31) ?v_129))))))))))))))))))))))))))))) 0)))))
(check-sat)
(exit)
